1171
1   1   136  98   0 40 12 71 65 35 29 54 0
1   2   30   98   0 95 59 94 13 0
1   3   64   95   0 41 23 39 4 21 0
1   4   67   99   0 87 42 14 86 91 98 92 0
1   5   40   100  0 93 85 100 37 97 0
1   6   90   96   0 48 62 88 53 58 0
1   7   124  96   0 26 33 81 24 55 25 67 56 0
1   8   37   85   0 73 72 74 75 22 2 0
2   1   91   100  0 19 47 36 49 64 11 0
2   2   8    27   0 31 0
2   3   124  97   0 57 15 43 38 44 5 60 18 0
2   4   67   85   0 69 27 28 6 96 99 89 52 0
2   5   50   92   0 1 76 80 68 77 50 0
2   6   105  99   0 83 84 61 16 17 45 46 8 82 7 0
2   7   68   91   0 70 20 66 32 90 63 10 0
2   8   70   100  0 30 51 9 34 78 79 3 0